# 38585
param k := 6;
param n := 60;
param s := 1;
set E :=  (0,53) (1,17) (1,57) (2,59) (3,54) (4,21) (4,29) (4,34) (5,6) (6,12) (6,28) (7,40) (8,13) (8,23) (8,35) (9,56) (10,29) (10,39) (11,21) (11,54) (12,33) (13,32) (13,41) (13,55) (14,23) (14,36) (15,16) (16,30) (16,48) (17,19) (18,38) (19,33) (19,59) (20,50) (20,58) (21,44) (21,45) (22,46) (22,51) (22,59) (24,26) (24,37) (24,47) (24,53) (25,58) (27,28) (31,43) (32,59) (37,43) (37,56) (38,39) (40,43) (42,57) (43,52) (45,46) (47,48) (47,50) (49,58) (53,54);